Route #1: 52 5 33 9 64 17 55 61 47 48 3
Route #2: 2 13 36 41 50 24 43 10 63 35 60 40 38 51 6 59 32 22 37 56
Route #3: 23 28 8 45 27 29 19 44 15
Route #4: 57 42 11 34 14 62 25
Route #5: 30 26 16 39 18 4 46 12 58 49 31 20 21 54
Route #6: 1 53
Route #7: 7
Route #8: 
Route #9: 
cost 2459.1523859932595
